SYSTEM=Al
PREC=Accurate
ENCUT=250
ISTART=1
ICHARG=11
ISMEAR=-5
LORBIT=10

