Automatic generation
0
MohkorstPack
19   19   19
0.0 0.0 0.0
