SYSTEM=Al
PREC=Accurate
EDIFF=1e-5
ENCUT=250.0
ISTART=1
IBRION=2
ISMEAR=1
ICHARG=11
SIGMA=0.2
NBANDS=12
ISPIN=2

