AutoCreatByScript: H C N F              
   1.00000000000000     
    16.5580246699999982   -9.5597799999999999    0.0000000000000000
     0.0000000000000000   19.1195599999999999    0.0000000000000000
     0.0000000000000000    0.0000000000000000   20.0000000000000000
   H    C    N    F 
    18    70    67     1
Selective dynamics
Direct
  0.5418824919996439  0.3651267581923037  0.1453242039646838   T   T   T
  0.8140168635338085  0.4304759767915840  0.1437708422663846   T   T   T
  0.4698298201248079  0.6845747621788050  0.1477616694639394   T   T   T
  0.8680432391723940  0.5372564738376653  0.1574299855807482   T   T   T
  0.1167005580803249  0.6134746989452964  0.1611512254647849   T   T   T
  0.3091886618785082  0.3694442966813938  0.1759799966019386   T   T   T
  0.4331743414640670  0.3608637753295696  0.1778943154680306   T   T   T
  0.1959785949307289  0.4126241366097076  0.1780914837598502   T   T   T
  0.1163992480687810  0.4826064919480828  0.1817744013750726   T   T   T
  0.2044314173001212  0.7068849779201614  0.1809223767508854   T   T   T
  0.5782998913031321  0.6209144053541706  0.1913973266401996   T   T   T
  0.3343981745733586  0.7137389976822135  0.1955931538068185   T   T   T
  0.8422470355148377  0.4705149824304868  0.2259087631609518   T   T   T
  0.4688381250015610  0.6815085651236288  0.2359703333143983   T   T   T
  0.1458803605903967  0.6389029652193017  0.2456055989628183   T   T   T
  0.8293394518681012  0.7796076472537976  0.2607838767352604   T   T   T
  0.8491583620447187  0.7262004691015491  0.3249840752085831   T   T   T
  0.7575683260359796  0.7312905880151703  0.3270313667177547   T   T   T
  0.0362540680334646  0.5947393817438424  0.9894336946446174   T   T   T
  0.6525986065502636  0.4632716758532638  0.9911038921807034   T   T   T
  0.7862756314580110  0.5966152428579647  0.9942401678347750   T   T   T
  0.6538855945543318  0.5981996421423190  0.9949370656008725   T   T   T
  0.4028422082774057  0.2090228482204139  0.9968154126521043   T   T   T
  0.9039917650132452  0.4601665996906235  0.9974492189215241   T   T   T
  0.9028864631539051  0.5937888689287689  0.9987747404015863   T   T   T
  0.0352013405713123  0.0935262567473316  0.0008196929221640   T   T   T
  0.1523816942193719  0.3458065603518747  0.0011788045904595   T   T   T
  0.1518568731060412  0.2125125903854226  0.0018629800019312   T   T   T
  0.1522498936678716  0.7137144424116144  0.0023289643248887   T   T   T
  0.2856280399469711  0.8462742709150604  0.0025744545305955   T   T   T
  0.6540273790067062  0.3464871054724838  0.0039538049226309   T   T   T
  0.6531242823878571  0.9633284634139301  0.0061755157996473   T   T   T
  0.9025123797602745  0.0934203812437886  0.0062561765471898   T   T   T
  0.7857317840830689  0.0952780182943158  0.0067724341208901   T   T   T
  0.9026234793617505  0.9594428340805337  0.0070650274853179   T   T   T
  0.4024605168867197  0.5934472459595597  0.0093135799758244   T   T   T
  0.6536899919781547  0.0960552844174174  0.0088986840259508   T   T   T
  0.4029748443746186  0.4599754716372075  0.0098742842844715   T   T   T
  0.1533643379371483  0.8473807131589552  0.0096721510501609   T   T   T
  0.1540100942837839  0.5968545973177797  0.0100878337668391   T   T   T
  0.2856965662218158  0.5955944580989083  0.0126170719336685   T   T   T
  0.7852642102577647  0.3445000826030693  0.0134380192265553   T   T   T
  0.6524021910170248  0.2130443170615948  0.0140771903276544   T   T   T
  0.1526773027055057  0.4632942733968619  0.0141243738288281   T   T   T
  0.5350166696874155  0.5940043879145449  0.0157394305735963   T   T   T
  0.6517704401702247  0.7124433397102834  0.0215420096713643   T   T   T
  0.6521725372289140  0.8461335309497500  0.0240932557790288   T   T   T
  0.1533561419160634  0.0974866475804248  0.0253515527898074   T   T   T
  0.9030707816072550  0.7092979293129105  0.0251962985798215   T   T   T
  0.4028865705156548  0.0939780949331777  0.0259962484042688   T   T   T
  0.4037627317487562  0.9604755081269118  0.0259881870997560   T   T   T
  0.9023935368833023  0.3440661796476547  0.0270729179361240   T   T   T
  0.2860534277447755  0.0962614974656688  0.0274739368593657   T   T   T
  0.1523545238817618  0.9635319607850619  0.0282625586432275   T   T   T
  0.9017044182778520  0.8426018162029507  0.0301358692255462   T   T   T
  0.7846252535584455  0.8445636448566916  0.0306799297928606   T   T   T
  0.9033335451194802  0.2100698346453740  0.0305635806606190   T   T   T
  0.0369945238356379  0.3450408227161432  0.0309932497308694   T   T   T
  0.5369299404949786  0.0948990237508269  0.0322547319024125   T   T   T
  0.0358478791614729  0.8440759404672704  0.0356438498640443   T   T   T
  0.6676355163331138  0.4163635985472780  0.1658144173729141   T   T   T
  0.5948296744519013  0.4184421553983952  0.1652125810464540   T   T   T
  0.8205965856857134  0.4788820266567768  0.1771709744682823   T   T   T
  0.3677589265589774  0.4247093644604689  0.1798885377973676   T   T   T
  0.4383729613551708  0.4203262508689747  0.1804969256287947   T   T   T
  0.2267834596945875  0.4782952220402521  0.1831025340835737   T   T   T
  0.7427839117478428  0.4793421778673519  0.1835065668133851   T   T   T
  0.3728806230102961  0.5002959231582977  0.1844770930301891   T   T   T
  0.1822058605705692  0.5178307936713367  0.1853819761925948   T   T   T
  0.5155535747364794  0.4901557504880998  0.1853864438144726   T   T   T
  0.3110856975017526  0.5239748687367651  0.1862146655315158   T   T   T
  0.5903085627111082  0.4854039126630667  0.1870319603604358   T   T   T
  0.4495621417384825  0.5706429591403150  0.1882390246535621   T   T   T
  0.5196861387328724  0.5660215145228520  0.1885291533060567   T   T   T
  0.2197399547062560  0.6024204860032327  0.1905807174920184   T   T   T
  0.3497393376896696  0.6090690651605968  0.1906261138214305   T   T   T
  0.4403204148046100  0.6445822482046282  0.1910712534196861   T   T   T
  0.3045184496238562  0.6478320394009458  0.1927013560187660   T   T   T
  0.1693672299360998  0.6427066701131707  0.1945832661739999   T   T   T
  0.7384731978116861  0.5461446638786569  0.2090424837753702   T   T   T
  0.6654110316279542  0.5494085397270041  0.2118456221176004   T   T   T
  0.8020045499113237  0.7276084258563884  0.2948997094582779   T   T   T
  0.5359663041059619  0.3435078987519518  0.9825782259655398   T   T   T
  0.4015817164590771  0.3423577169244112  0.9900796741864184   T   T   T
  0.2845063502082610  0.3439723494724376  0.9915809231675397   T   T   T
  0.4035976859343791  0.7111548279127433  0.9918705832845021   T   T   T
  0.5365576976793776  0.8453546175477911  0.9946004810309788   T   T   T
  0.4027973511536018  0.8447765032588563  0.9969943402368955   T   T   T
  0.5753398190204706  0.3028677111043407  0.9897102659003281   T   T   T
  0.8236782035058496  0.4204421986793179  0.9901198678431342   T   T   T
  0.6978211904818465  0.5532682542289535  0.9904466002713761   T   T   T
  0.6905768263836976  0.1744967088256004  0.9912494442932527   T   T   T
  0.9478358607997137  0.5493109160790013  0.9923666818798083   T   T   T
  0.0761960276923119  0.5541721278231933  0.9930422795730038   T   T   T
  0.5734678580462571  0.5557069464614131  0.9957933861872235   T   T   T
  0.6940304538888995  0.6794944902072970  0.9966631839368034   T   T   T
  0.3234905128037937  0.6742010549213759  0.9978441633829078   T   T   T
  0.9466842985938868  0.0482955041488466  0.0018783166654757   T   T   T
  0.1918344146851112  0.9282349181836054  0.0017428921814613   T   T   T
  0.1972448974312329  0.8029665700819635  0.0025484441638781   T   T   T
  0.3226778448656020  0.1719992799829768  0.0045582396376389   T   T   T
  0.9423075416219220  0.9177968198955710  0.0049707074821228   T   T   T
  0.6978156702470955  0.0518833659087292  0.0054036795006880   T   T   T
  0.3225865241099655  0.4221731403916067  0.0070599538498115   T   T   T
  0.9452035042702889  0.4216704065812067  0.0088446462579626   T   T   T
  0.4431034486117866  0.4188666842046871  0.0117442193507387   T   T   T
  0.6974630016728298  0.3017653873339370  0.0110560163391753   T   T   T
  0.5730742094496861  0.8039179873089921  0.0115738773950866   T   T   T
  0.8223515803105599  0.9220721493818758  0.0123614242586001   T   T   T
  0.4468376974470374  0.5488001887229217  0.0129932395650982   T   T   T
  0.1977099189312455  0.5522491831922522  0.0134142853084498   T   T   T
  0.6926385261061867  0.4268961623221870  0.0139651204114273   T   T   T
  0.8236497373178722  0.6735299067023206  0.0143060747440202   T   T   T
  0.0734002394921873  0.0541069953912015  0.0183765597193855   T   T   T
  0.0748671990554186  0.3035538885673077  0.0194308903164995   T   T   T
  0.4443550987162013  0.9201954808944137  0.0212353102311837   T   T   T
  0.0744477288582743  0.8039122332814017  0.0223464625991880   T   T   T
  0.1914804206661174  0.6763445591863331  0.0250303832523926   T   T   T
  0.3230045642085528  0.9221685701664271  0.0256012707424347   T   T   T
  0.3247103978912875  0.5557137535622516  0.0280820245843287   T   T   T
  0.8227143129209082  0.1719013895216008  0.0279095663608118   T   T   T
  0.1926671755450755  0.1787526629257457  0.0286891754385223   T   T   T
  0.5766661344521467  0.0540342024874363  0.0286166494176072   T   T   T
  0.9420563043832573  0.6669527404502134  0.0282649696336037   T   T   T
  0.6960300589176285  0.8012075026030914  0.0292024361667629   T   T   T
  0.1974346975135077  0.0529624061754390  0.0305706174662674   T   T   T
  0.9435209685120967  0.1688994898977398  0.0308292222003033   T   T   T
  0.4479899288770284  0.0494458374288271  0.0318393494297737   T   T   T
  0.6911040590787110  0.9267143850376414  0.0330278091455867   T   T   T
  0.9475216877471908  0.2995018529336946  0.0337288738145602   T   T   T
  0.9468824823353899  0.7981421409624545  0.0342787255995134   T   T   T
  0.5763137531148246  0.1758585495018892  0.0373510826575085   T   T   T
  0.5732929295780878  0.6705338671219749  0.0391481277928563   T   T   T
  0.8224271245884509  0.3061794017716721  0.0391357284556975   T   T   T
  0.0777930975747196  0.4255222984657578  0.0405317542306918   T   T   T
  0.3261791632799103  0.0587608640851656  0.0483882911704185   T   T   T
  0.8240488265261448  0.8059336011157114  0.0506411200249985   T   T   T
  0.0755456491976574  0.9235598805893446  0.0506392042783759   T   T   T
  0.7985268029074675  0.6136801485760088  0.2382739455841119   T   T   T
  0.6822916168249122  0.6190483313932731  0.2436949553197820   T   T   T
  0.7604843703578084  0.6526594889995323  0.2575388733842487   T   T   T
  0.5749063003076031  0.4238045930876666  0.9717380651621284   T   T   T
  0.3229003023094421  0.3041222941917141  0.9725179776198729   T   T   T
  0.8266696883857705  0.5585666139730350  0.9758541612930500   T   T   T
  0.3243847407305580  0.8086255728280349  0.9790101411269134   T   T   T
  0.5778288264537466  0.9249007284568336  0.9804536051519364   T   T   T
  0.0743883863074259  0.1714322392398984  0.9812215073311066   T   T   T
  0.0750501140383975  0.6754308588298628  0.9816083600166294   T   T   T
  0.8251399442239062  0.0572479646149375  0.9858220354127880   T   T   T
  0.4467489882064655  0.2975981404930081  0.9865027457754891   T   T   T
  0.4437193399232555  0.6701300370220835  0.9868919817954236   T   T   T
  0.1894899202426643  0.4253904143588230  0.9872849195468376   T   T   T
  0.4477493509597679  0.8004545181099161  0.9906359844153840   T   T   T
  0.1961543249676296  0.3009524973108455  0.9953621409016264   T   T   T
  0.4424557754934355  0.1673706922498894  0.9974866701851184   T   T   T
  0.6619523924271817  0.3451609334740695  0.1454528719624193   T   T   T
 
  0.00000000E+00  0.00000000E+00  0.00000000E+00
  0.00000000E+00  0.00000000E+00  0.00000000E+00
  0.00000000E+00  0.00000000E+00  0.00000000E+00
  0.00000000E+00  0.00000000E+00  0.00000000E+00
  0.00000000E+00  0.00000000E+00  0.00000000E+00
  0.00000000E+00  0.00000000E+00  0.00000000E+00
  0.00000000E+00  0.00000000E+00  0.00000000E+00
  0.00000000E+00  0.00000000E+00  0.00000000E+00
  0.00000000E+00  0.00000000E+00  0.00000000E+00
  0.00000000E+00  0.00000000E+00  0.00000000E+00
  0.00000000E+00  0.00000000E+00  0.00000000E+00
  0.00000000E+00  0.00000000E+00  0.00000000E+00
  0.00000000E+00  0.00000000E+00  0.00000000E+00
  0.00000000E+00  0.00000000E+00  0.00000000E+00
  0.00000000E+00  0.00000000E+00  0.00000000E+00
  0.00000000E+00  0.00000000E+00  0.00000000E+00
  0.00000000E+00  0.00000000E+00  0.00000000E+00
  0.00000000E+00  0.00000000E+00  0.00000000E+00
  0.00000000E+00  0.00000000E+00  0.00000000E+00
  0.00000000E+00  0.00000000E+00  0.00000000E+00
  0.00000000E+00  0.00000000E+00  0.00000000E+00
  0.00000000E+00  0.00000000E+00  0.00000000E+00
  0.00000000E+00  0.00000000E+00  0.00000000E+00
  0.00000000E+00  0.00000000E+00  0.00000000E+00
  0.00000000E+00  0.00000000E+00  0.00000000E+00
  0.00000000E+00  0.00000000E+00  0.00000000E+00
  0.00000000E+00  0.00000000E+00  0.00000000E+00
  0.00000000E+00  0.00000000E+00  0.00000000E+00
  0.00000000E+00  0.00000000E+00  0.00000000E+00
  0.00000000E+00  0.00000000E+00  0.00000000E+00
  0.00000000E+00  0.00000000E+00  0.00000000E+00
  0.00000000E+00  0.00000000E+00  0.00000000E+00
  0.00000000E+00  0.00000000E+00  0.00000000E+00
  0.00000000E+00  0.00000000E+00  0.00000000E+00
  0.00000000E+00  0.00000000E+00  0.00000000E+00
  0.00000000E+00  0.00000000E+00  0.00000000E+00
  0.00000000E+00  0.00000000E+00  0.00000000E+00
  0.00000000E+00  0.00000000E+00  0.00000000E+00
  0.00000000E+00  0.00000000E+00  0.00000000E+00
  0.00000000E+00  0.00000000E+00  0.00000000E+00
  0.00000000E+00  0.00000000E+00  0.00000000E+00
  0.00000000E+00  0.00000000E+00  0.00000000E+00
  0.00000000E+00  0.00000000E+00  0.00000000E+00
  0.00000000E+00  0.00000000E+00  0.00000000E+00
  0.00000000E+00  0.00000000E+00  0.00000000E+00
  0.00000000E+00  0.00000000E+00  0.00000000E+00
  0.00000000E+00  0.00000000E+00  0.00000000E+00
  0.00000000E+00  0.00000000E+00  0.00000000E+00
  0.00000000E+00  0.00000000E+00  0.00000000E+00
  0.00000000E+00  0.00000000E+00  0.00000000E+00
  0.00000000E+00  0.00000000E+00  0.00000000E+00
  0.00000000E+00  0.00000000E+00  0.00000000E+00
  0.00000000E+00  0.00000000E+00  0.00000000E+00
  0.00000000E+00  0.00000000E+00  0.00000000E+00
  0.00000000E+00  0.00000000E+00  0.00000000E+00
  0.00000000E+00  0.00000000E+00  0.00000000E+00
  0.00000000E+00  0.00000000E+00  0.00000000E+00
  0.00000000E+00  0.00000000E+00  0.00000000E+00
  0.00000000E+00  0.00000000E+00  0.00000000E+00
  0.00000000E+00  0.00000000E+00  0.00000000E+00
  0.00000000E+00  0.00000000E+00  0.00000000E+00
  0.00000000E+00  0.00000000E+00  0.00000000E+00
  0.00000000E+00  0.00000000E+00  0.00000000E+00
  0.00000000E+00  0.00000000E+00  0.00000000E+00
  0.00000000E+00  0.00000000E+00  0.00000000E+00
  0.00000000E+00  0.00000000E+00  0.00000000E+00
  0.00000000E+00  0.00000000E+00  0.00000000E+00
  0.00000000E+00  0.00000000E+00  0.00000000E+00
  0.00000000E+00  0.00000000E+00  0.00000000E+00
  0.00000000E+00  0.00000000E+00  0.00000000E+00
  0.00000000E+00  0.00000000E+00  0.00000000E+00
  0.00000000E+00  0.00000000E+00  0.00000000E+00
  0.00000000E+00  0.00000000E+00  0.00000000E+00
  0.00000000E+00  0.00000000E+00  0.00000000E+00
  0.00000000E+00  0.00000000E+00  0.00000000E+00
  0.00000000E+00  0.00000000E+00  0.00000000E+00
  0.00000000E+00  0.00000000E+00  0.00000000E+00
  0.00000000E+00  0.00000000E+00  0.00000000E+00
  0.00000000E+00  0.00000000E+00  0.00000000E+00
  0.00000000E+00  0.00000000E+00  0.00000000E+00
  0.00000000E+00  0.00000000E+00  0.00000000E+00
  0.00000000E+00  0.00000000E+00  0.00000000E+00
  0.00000000E+00  0.00000000E+00  0.00000000E+00
  0.00000000E+00  0.00000000E+00  0.00000000E+00
  0.00000000E+00  0.00000000E+00  0.00000000E+00
  0.00000000E+00  0.00000000E+00  0.00000000E+00
  0.00000000E+00  0.00000000E+00  0.00000000E+00
  0.00000000E+00  0.00000000E+00  0.00000000E+00
  0.00000000E+00  0.00000000E+00  0.00000000E+00
  0.00000000E+00  0.00000000E+00  0.00000000E+00
  0.00000000E+00  0.00000000E+00  0.00000000E+00
  0.00000000E+00  0.00000000E+00  0.00000000E+00
  0.00000000E+00  0.00000000E+00  0.00000000E+00
  0.00000000E+00  0.00000000E+00  0.00000000E+00
  0.00000000E+00  0.00000000E+00  0.00000000E+00
  0.00000000E+00  0.00000000E+00  0.00000000E+00
  0.00000000E+00  0.00000000E+00  0.00000000E+00
  0.00000000E+00  0.00000000E+00  0.00000000E+00
  0.00000000E+00  0.00000000E+00  0.00000000E+00
  0.00000000E+00  0.00000000E+00  0.00000000E+00
  0.00000000E+00  0.00000000E+00  0.00000000E+00
  0.00000000E+00  0.00000000E+00  0.00000000E+00
  0.00000000E+00  0.00000000E+00  0.00000000E+00
  0.00000000E+00  0.00000000E+00  0.00000000E+00
  0.00000000E+00  0.00000000E+00  0.00000000E+00
  0.00000000E+00  0.00000000E+00  0.00000000E+00
  0.00000000E+00  0.00000000E+00  0.00000000E+00
  0.00000000E+00  0.00000000E+00  0.00000000E+00
  0.00000000E+00  0.00000000E+00  0.00000000E+00
  0.00000000E+00  0.00000000E+00  0.00000000E+00
  0.00000000E+00  0.00000000E+00  0.00000000E+00
  0.00000000E+00  0.00000000E+00  0.00000000E+00
  0.00000000E+00  0.00000000E+00  0.00000000E+00
  0.00000000E+00  0.00000000E+00  0.00000000E+00
  0.00000000E+00  0.00000000E+00  0.00000000E+00
  0.00000000E+00  0.00000000E+00  0.00000000E+00
  0.00000000E+00  0.00000000E+00  0.00000000E+00
  0.00000000E+00  0.00000000E+00  0.00000000E+00
  0.00000000E+00  0.00000000E+00  0.00000000E+00
  0.00000000E+00  0.00000000E+00  0.00000000E+00
  0.00000000E+00  0.00000000E+00  0.00000000E+00
  0.00000000E+00  0.00000000E+00  0.00000000E+00
  0.00000000E+00  0.00000000E+00  0.00000000E+00
  0.00000000E+00  0.00000000E+00  0.00000000E+00
  0.00000000E+00  0.00000000E+00  0.00000000E+00
  0.00000000E+00  0.00000000E+00  0.00000000E+00
  0.00000000E+00  0.00000000E+00  0.00000000E+00
  0.00000000E+00  0.00000000E+00  0.00000000E+00
  0.00000000E+00  0.00000000E+00  0.00000000E+00
  0.00000000E+00  0.00000000E+00  0.00000000E+00
  0.00000000E+00  0.00000000E+00  0.00000000E+00
  0.00000000E+00  0.00000000E+00  0.00000000E+00
  0.00000000E+00  0.00000000E+00  0.00000000E+00
  0.00000000E+00  0.00000000E+00  0.00000000E+00
  0.00000000E+00  0.00000000E+00  0.00000000E+00
  0.00000000E+00  0.00000000E+00  0.00000000E+00
  0.00000000E+00  0.00000000E+00  0.00000000E+00
  0.00000000E+00  0.00000000E+00  0.00000000E+00
  0.00000000E+00  0.00000000E+00  0.00000000E+00
  0.00000000E+00  0.00000000E+00  0.00000000E+00
  0.00000000E+00  0.00000000E+00  0.00000000E+00
  0.00000000E+00  0.00000000E+00  0.00000000E+00
  0.00000000E+00  0.00000000E+00  0.00000000E+00
  0.00000000E+00  0.00000000E+00  0.00000000E+00
  0.00000000E+00  0.00000000E+00  0.00000000E+00
  0.00000000E+00  0.00000000E+00  0.00000000E+00
  0.00000000E+00  0.00000000E+00  0.00000000E+00
  0.00000000E+00  0.00000000E+00  0.00000000E+00
  0.00000000E+00  0.00000000E+00  0.00000000E+00
  0.00000000E+00  0.00000000E+00  0.00000000E+00
  0.00000000E+00  0.00000000E+00  0.00000000E+00
  0.00000000E+00  0.00000000E+00  0.00000000E+00
  0.00000000E+00  0.00000000E+00  0.00000000E+00
  0.00000000E+00  0.00000000E+00  0.00000000E+00
  0.00000000E+00  0.00000000E+00  0.00000000E+00
  0.00000000E+00  0.00000000E+00  0.00000000E+00
